10
0 39 82 53 48 41 31 71 15 38
39 0 65 55 47 59 62 60 14 36
82 65 0 26 69 76 12 41 60 65
53 55 26 0 27 50 57 47 34 44
48 47 69 27 0 57 75 75 40 60
41 59 76 50 57 0 67 85 13 42
31 62 12 57 75 67 0 38 63 78
71 60 41 47 75 85 38 0 54 9
15 14 60 34 40 13 63 54 0 38
38 36 65 44 60 42 78 9 38 0
